 28 78 22 21 10 16 53 19 46 85 47 98  8 78 16
 57 71 40 73 51 80 72 36 23 83  6 18 25 23 77
 56 85 47 32  9 81 58 78 68 38 81 85 65 16 86
 47 99 97 70 70 58 39 42 54 22 82 29 78 65 72
 35 38 43 78 58 24 27 93 43 79 88 60  5 70 33
 16 42 19 63 67 48 15 72 36 11 82 48 75 55 42
 51 56 43 33  6 61 72 29 94  3 40 62 40 10 56
 80 34 90  1 74 22 86 65 18 60 23 82 39 10  4
 56 55 25 76 47 19 51 33 41 80 82 18  2 60 27
  6 55 69 66 82 44 36 44 96 24 33 53 82 25 59
 78 82 84 59 35 55  9  8 73 60  8 35 50 98 36
 44 26 66 48 86 23 17 44 20 39 51 38 77 59 28
 75 63 67  3 70 64  7 68 80 23 65 58 98 89 84
 20  5 16 84 57 14 78  5 51 79 40 32 58 83 86
 26 17 65 13 72 86 23 41 21 88 91  4 94 40 79